1 1 -1
2 1 178.2
3 1 12.45
4 1 6.19
5 1 8.96
6 1 9.67
7 1 7.12
8 1 37.25
9 1 4.17
10 1 3.72
11 1 31.86
12 1 3.96
13 1 4.3
14 1 4.4
15 1 3.63
16 1 4.39
17 1 3.48
18 1 4.22
19 1 3.67
20 1 5.47
21 1 3.98
22 1 42.85
23 1 5.29
24 1 4.07
25 1 3.93
26 1 4.33
27 1 8.48
28 1 5.97
29 1 3.94
30 1 3.66
31 1 4.96
32 1 94.42
33 1 3.53
34 1 3.6
35 1 4.64
36 1 3.59
37 1 3.85
38 1 3.99
39 1 3.64
40 1 3.61
41 1 3.63
42 1 3.64
43 1 3.56
44 1 3.65
45 1 3.79
46 1 5.31
47 1 4.42
48 1 3.48
49 1 3.48
50 1 3.94
51 1 5.89
1 2 -1
2 2 -1
3 2 77.46
4 2 4.73
5 2 12.61
6 2 6.71
7 2 5.01
8 2 6.47
9 2 9.77
10 2 4.09
11 2 87.98
12 2 3.83
13 2 3.65
14 2 3.48
15 2 3.96
16 2 152.07
17 2 3.57
18 2 3.61
19 2 3.63
20 2 20.06
21 2 4.66
22 2 15.02
23 2 3.87
24 2 3.57
25 2 3.58
26 2 3.71
27 2 4.48
28 2 4.41
29 2 18.06
30 2 3.48
31 2 3.83
32 2 5.0
33 2 3.79
34 2 3.48
35 2 3.48
36 2 3.99
37 2 3.77
38 2 3.96
39 2 3.48
40 2 3.48
41 2 3.57
42 2 3.61
43 2 3.6
44 2 3.48
45 2 3.48
46 2 4.15
47 2 3.7
48 2 3.93
49 2 3.71
50 2 4.4
51 2 4.0
1 3 -1
2 3 -1
3 3 -1
4 3 5.36
5 3 7.76
6 3 6.09
7 3 5.96
8 3 17.59
9 3 4.69
10 3 3.91
11 3 6.32
12 3 3.96
13 3 3.65
14 3 4.01
15 3 3.68
16 3 4.54
17 3 3.57
18 3 3.8
19 3 3.57
20 3 321.07
21 3 3.96
22 3 9.94
23 3 3.57
24 3 3.53
25 3 3.56
26 3 3.98
27 3 4.24
28 3 32.41
29 3 5.91
30 3 3.48
31 3 4.93
32 3 3.99
33 3 3.58
34 3 3.89
35 3 10.22
36 3 6.05
37 3 3.7
38 3 4.01
39 3 3.59
40 3 3.48
41 3 3.59
42 3 3.56
43 3 3.56
44 3 3.61
45 3 3.56
46 3 3.59
47 3 3.48
48 3 3.76
49 3 3.76
50 3 3.61
51 3 3.64
1 4 -1
2 4 -1
3 4 -1
4 4 -1
5 4 17.84
6 4 23.41
7 4 4.93
8 4 4.96
9 4 5.43
10 4 4.17
11 4 4.99
12 4 40.01
13 4 33.72
14 4 6.11
15 4 6.1
16 4 4.0
17 4 103.73
18 4 94.65
19 4 5.62
20 4 3.63
21 4 3.61
22 4 3.82
23 4 3.63
24 4 3.94
25 4 5.36
26 4 3.85
27 4 4.03
28 4 3.77
29 4 3.54
30 4 3.79
31 4 3.75
32 4 4.05
33 4 3.79
34 4 3.93
35 4 3.54
36 4 3.58
37 4 5.0
38 4 3.59
39 4 3.79
40 4 4.26
41 4 4.57
42 4 4.46
43 4 3.48
44 4 5.87
45 4 3.76
46 4 3.93
47 4 6.53
48 4 3.66
49 4 3.87
50 4 3.63
51 4 3.48
1 5 -1
2 5 -1
3 5 -1
4 5 -1
5 5 -1
6 5 12.56
7 5 5.06
8 5 5.35
9 5 116.7
10 5 9.79
11 5 50.98
12 5 164.9
13 5 4.33
14 5 3.69
15 5 8.77
16 5 6.05
17 5 7.47
18 5 4.5
19 5 3.61
20 5 4.24
21 5 3.91
22 5 3.77
23 5 3.48
24 5 3.65
25 5 3.48
26 5 3.61
27 5 4.48
28 5 3.6
29 5 3.77
30 5 4.82
31 5 3.54
32 5 4.19
33 5 3.68
34 5 3.74
35 5 3.48
36 5 3.56
37 5 4.12
38 5 10.74
39 5 4.08
40 5 3.61
41 5 3.48
42 5 3.48
43 5 3.54
44 5 4.09
45 5 4.18
46 5 5.59
47 5 5.07
48 5 4.0
49 5 9.02
50 5 3.48
51 5 4.43
1 6 -1
2 6 -1
3 6 -1
4 6 -1
5 6 -1
6 6 -1
7 6 66.53
8 6 12.99
9 6 4.74
10 6 4.43
11 6 6.17
12 6 8.22
13 6 6.78
14 6 204.2
15 6 4.05
16 6 3.71
17 6 3.48
18 6 4.96
19 6 3.58
20 6 3.48
21 6 3.66
22 6 4.04
23 6 8.84
24 6 4.33
25 6 4.21
26 6 4.05
27 6 19.6
28 6 3.59
29 6 3.68
30 6 3.59
31 6 3.62
32 6 4.89
33 6 3.48
34 6 3.54
35 6 3.52
36 6 3.6
37 6 3.48
38 6 3.83
39 6 3.54
40 6 3.54
41 6 3.58
42 6 3.65
43 6 3.76
44 6 3.59
45 6 3.56
46 6 3.98
47 6 4.88
48 6 5.47
49 6 3.48
50 6 3.48
51 6 5.14
1 7 -1
2 7 -1
3 7 -1
4 7 -1
5 7 -1
6 7 -1
7 7 -1
8 7 69.81
9 7 5.03
10 7 3.94
11 7 4.51
12 7 4.85
13 7 4.89
14 7 7.13
15 7 4.07
16 7 3.8
17 7 3.77
18 7 4.41
19 7 3.71
20 7 3.99
21 7 3.68
22 7 4.18
23 7 579.19
24 7 3.93
25 7 3.82
26 7 12.5
27 7 3.95
28 7 3.48
29 7 3.48
30 7 3.54
31 7 3.48
32 7 3.48
33 7 3.48
34 7 3.56
35 7 3.48
36 7 3.64
37 7 3.48
38 7 3.54
39 7 3.48
40 7 3.58
41 7 3.64
42 7 3.48
43 7 4.67
44 7 3.48
45 7 3.48
46 7 3.85
47 7 3.48
48 7 3.48
49 7 3.48
50 7 3.56
51 7 3.48
1 8 -1
2 8 -1
3 8 -1
4 8 -1
5 8 -1
6 8 -1
7 8 -1
8 8 -1
9 8 7.0
10 8 4.26
11 8 12.13
12 8 6.92
13 8 5.57
14 8 5.24
15 8 4.34
16 8 4.01
17 8 3.9
18 8 4.63
19 8 3.83
20 8 5.46
21 8 3.68
22 8 44.91
23 8 14.8
24 8 4.12
25 8 3.48
26 8 299.97
27 8 5.11
28 8 3.99
29 8 3.73
30 8 3.66
31 8 9.89
32 8 4.76
33 8 3.48
34 8 3.54
35 8 3.74
36 8 3.48
37 8 3.48
38 8 3.48
39 8 3.48
40 8 3.48
41 8 3.55
42 8 3.48
43 8 3.64
44 8 3.48
45 8 3.48
46 8 3.48
47 8 3.48
48 8 5.5
49 8 3.54
50 8 3.64
51 8 4.09
1 9 -1
2 9 -1
3 9 -1
4 9 -1
5 9 -1
6 9 -1
7 9 -1
8 9 -1
9 9 -1
10 9 215.28
11 9 40.68
12 9 6.52
13 9 4.47
14 9 3.99
15 9 4.48
16 9 96.62
17 9 4.23
18 9 3.86
19 9 3.65
20 9 5.71
21 9 4.26
22 9 3.9
23 9 3.61
24 9 3.48
25 9 3.48
26 9 3.76
27 9 3.71
28 9 3.65
29 9 3.48
30 9 12.18
31 9 3.48
32 9 3.48
33 9 3.77
34 9 12.71
35 9 3.48
36 9 3.48
37 9 3.67
38 9 22.59
39 9 3.94
40 9 3.54
41 9 3.48
42 9 3.54
43 9 3.48
44 9 3.48
45 9 3.48
46 9 3.66
47 9 3.48
48 9 3.48
49 9 5.88
50 9 3.48
51 9 3.48
1 10 -1
2 10 -1
3 10 -1
4 10 -1
5 10 -1
6 10 -1
7 10 -1
8 10 -1
9 10 -1
10 10 -1
11 10 9.99
12 10 9.65
13 10 5.14
14 10 3.98
15 10 61.98
16 10 7.29
17 10 3.91
18 10 3.88
19 10 3.89
20 10 4.28
21 10 3.91
22 10 4.12
23 10 3.64
24 10 3.52
25 10 3.59
26 10 3.6
27 10 3.71
28 10 3.59
29 10 4.07
30 10 282.49
31 10 3.48
32 10 3.48
33 10 5.3
34 10 3.48
35 10 3.48
36 10 3.48
37 10 4.45
38 10 3.86
39 10 5.99
40 10 3.48
41 10 3.48
42 10 3.48
43 10 3.48
44 10 4.09
45 10 4.49
46 10 3.61
47 10 3.71
48 10 3.48
49 10 5.14
50 10 3.48
51 10 3.48
1 11 -1
2 11 -1
3 11 -1
4 11 -1
5 11 -1
6 11 -1
7 11 -1
8 11 -1
9 11 -1
10 11 -1
11 11 -1
12 11 60.13
13 11 5.89
14 11 5.13
15 11 7.6
16 11 248.24
17 11 4.75
18 11 4.36
19 11 3.85
20 11 8.74
21 11 3.68
22 11 8.82
23 11 4.29
24 11 3.66
25 11 3.77
26 11 3.48
27 11 9.2
28 11 3.83
29 11 4.12
30 11 5.02
31 11 3.48
32 11 33.4
33 11 3.59
34 11 3.48
35 11 3.48
36 11 3.48
37 11 3.48
38 11 20.34
39 11 3.48
40 11 3.52
41 11 3.48
42 11 3.61
43 11 3.57
44 11 3.48
45 11 3.48
46 11 3.48
47 11 3.48
48 11 3.48
49 11 4.47
50 11 3.48
51 11 3.48
1 12 -1
2 12 -1
3 12 -1
4 12 -1
5 12 -1
6 12 -1
7 12 -1
8 12 -1
9 12 -1
10 12 -1
11 12 -1
12 12 -1
13 12 18.19
14 12 16.79
15 12 33.13
16 12 6.27
17 12 212.87
18 12 13.76
19 12 5.47
20 12 3.92
21 12 3.88
22 12 4.37
23 12 3.63
24 12 3.76
25 12 3.61
26 12 3.65
27 12 6.21
28 12 3.68
29 12 3.66
30 12 3.59
31 12 3.55
32 12 3.79
33 12 4.31
34 12 3.48
35 12 3.48
36 12 3.55
37 12 4.26
38 12 3.48
39 12 3.48
40 12 3.54
41 12 3.74
42 12 3.48
43 12 3.48
44 12 4.7
45 12 3.48
46 12 5.06
47 12 54.51
48 12 3.64
49 12 4.06
50 12 3.97
51 12 3.48
1 13 -1
2 13 -1
3 13 -1
4 13 -1
5 13 -1
6 13 -1
7 13 -1
8 13 -1
9 13 -1
10 13 -1
11 13 -1
12 13 -1
13 13 -1
14 13 40.66
15 13 7.12
16 13 3.84
17 13 4.02
18 13 47.96
19 13 39.28
20 13 3.88
21 13 3.76
22 13 3.85
23 13 3.79
24 13 3.89
25 13 5.71
26 13 3.73
27 13 4.51
28 13 3.57
29 13 3.58
30 13 3.54
31 13 3.48
32 13 3.48
33 13 4.03
34 13 3.52
35 13 3.48
36 13 3.51
37 13 3.61
38 13 3.54
39 13 3.52
40 13 4.04
41 13 4.43
42 13 3.48
43 13 3.62
44 13 3.59
45 13 3.48
46 13 3.48
47 13 3.91
48 13 3.48
49 13 3.55
50 13 3.55
51 13 3.48
1 14 -1
2 14 -1
3 14 -1
4 14 -1
5 14 -1
6 14 -1
7 14 -1
8 14 -1
9 14 -1
10 14 -1
11 14 -1
12 14 -1
13 14 -1
14 14 -1
15 14 7.24
16 14 3.99
17 14 4.09
18 14 146.84
19 14 7.21
20 14 4.29
21 14 3.73
22 14 4.67
23 14 15.96
24 14 39.65
25 14 387.59
26 14 4.2
27 14 5.26
28 14 3.48
29 14 3.48
30 14 3.65
31 14 3.48
32 14 3.85
33 14 3.52
34 14 3.52
35 14 3.53
36 14 3.48
37 14 3.83
38 14 3.48
39 14 3.48
40 14 3.67
41 14 3.8
42 14 3.48
43 14 4.03
44 14 3.57
45 14 3.48
46 14 3.48
47 14 3.79
48 14 3.48
49 14 3.48
50 14 3.48
51 14 3.48
1 15 -1
2 15 -1
3 15 -1
4 15 -1
5 15 -1
6 15 -1
7 15 -1
8 15 -1
9 15 -1
10 15 -1
11 15 -1
12 15 -1
13 15 -1
14 15 -1
15 15 -1
16 15 5.71
17 15 174.04
18 15 6.19
19 15 11.9
20 15 5.2
21 15 4.02
22 15 4.61
23 15 4.01
24 15 3.52
25 15 3.92
26 15 3.73
27 15 4.04
28 15 3.65
29 15 3.56
30 15 4.83
31 15 3.53
32 15 3.81
33 15 45.93
34 15 3.6
35 15 3.52
36 15 3.52
37 15 17.76
38 15 3.83
39 15 3.83
40 15 3.56
41 15 3.61
42 15 3.79
43 15 3.48
44 15 3.48
45 15 5.06
46 15 3.48
47 15 3.48
48 15 3.48
49 15 3.9
50 15 3.48
51 15 3.48
1 16 -1
2 16 -1
3 16 -1
4 16 -1
5 16 -1
6 16 -1
7 16 -1
8 16 -1
9 16 -1
10 16 -1
11 16 -1
12 16 -1
13 16 -1
14 16 -1
15 16 -1
16 16 -1
17 16 4.07
18 16 4.24
19 16 3.81
20 16 13.15
21 16 428.78
22 16 13.58
23 16 3.91
24 16 3.76
25 16 3.62
26 16 4.05
27 16 3.48
28 16 3.72
29 16 29.67
30 16 8.55
31 16 3.48
32 16 3.48
33 16 3.57
34 16 5.14
35 16 3.64
36 16 3.48
37 16 3.48
38 16 8.38
39 16 3.76
40 16 3.62
41 16 3.52
42 16 3.48
43 16 3.48
44 16 3.63
45 16 3.65
46 16 3.48
47 16 3.59
48 16 3.48
49 16 3.48
50 16 3.48
51 16 3.67
1 17 -1
2 17 -1
3 17 -1
4 17 -1
5 17 -1
6 17 -1
7 17 -1
8 17 -1
9 17 -1
10 17 -1
11 17 -1
12 17 -1
13 17 -1
14 17 -1
15 17 -1
16 17 -1
17 17 -1
18 17 71.92
19 17 31.96
20 17 4.18
21 17 3.92
22 17 4.07
23 17 4.47
24 17 3.55
25 17 3.99
26 17 3.78
27 17 4.54
28 17 3.68
29 17 3.64
30 17 4.08
31 17 3.6
32 17 3.87
33 17 4.42
34 17 3.55
35 17 3.52
36 17 3.52
37 17 1195.64
38 17 3.67
39 17 3.68
40 17 3.85
41 17 4.24
42 17 5.41
43 17 3.48
44 17 5.5
45 17 3.48
46 17 3.76
47 17 4.66
48 17 3.48
49 17 3.48
50 17 3.58
51 17 3.48
1 18 -1
2 18 -1
3 18 -1
4 18 -1
5 18 -1
6 18 -1
7 18 -1
8 18 -1
9 18 -1
10 18 -1
11 18 -1
12 18 -1
13 18 -1
14 18 -1
15 18 -1
16 18 -1
17 18 -1
18 18 -1
19 18 44.18
20 18 4.59
21 18 4.09
22 18 5.21
23 18 8.78
24 18 10.87
25 18 160.96
26 18 4.73
27 18 9.05
28 18 3.66
29 18 3.74
30 18 3.93
31 18 3.78
32 18 3.48
33 18 4.31
34 18 3.65
35 18 3.52
36 18 3.48
37 18 4.96
38 18 4.17
39 18 3.57
40 18 4.14
41 18 4.19
42 18 3.9
43 18 3.56
44 18 4.05
45 18 3.48
46 18 3.91
47 18 5.33
48 18 3.48
49 18 3.72
50 18 3.48
51 18 3.48
1 19 -1
2 19 -1
3 19 -1
4 19 -1
5 19 -1
6 19 -1
7 19 -1
8 19 -1
9 19 -1
10 19 -1
11 19 -1
12 19 -1
13 19 -1
14 19 -1
15 19 -1
16 19 -1
17 19 -1
18 19 -1
19 19 -1
20 19 5.44
21 19 4.38
22 19 4.81
23 19 5.13
24 19 5.37
25 19 5.54
26 19 4.34
27 19 4.09
28 19 3.68
29 19 3.64
30 19 4.12
31 19 3.63
32 19 3.61
33 19 7.04
34 19 3.48
35 19 3.55
36 19 3.51
37 19 5.99
38 19 3.59
39 19 3.48
40 19 52.95
41 19 522.52
42 19 4.55
43 19 3.72
44 19 4.06
45 19 3.48
46 19 3.7
47 19 3.79
48 19 3.48
49 19 3.48
50 19 3.48
51 19 3.48
1 20 -1
2 20 -1
3 20 -1
4 20 -1
5 20 -1
6 20 -1
7 20 -1
8 20 -1
9 20 -1
10 20 -1
11 20 -1
12 20 -1
13 20 -1
14 20 -1
15 20 -1
16 20 -1
17 20 -1
18 20 -1
19 20 -1
20 20 -1
21 20 15.4
22 20 76.08
23 20 5.02
24 20 3.67
25 20 3.56
26 20 6.43
27 20 4.48
28 20 7.37
29 20 14.0
30 20 3.91
31 20 3.48
32 20 4.45
33 20 3.81
34 20 3.86
35 20 276.36
36 20 3.94
37 20 3.48
38 20 3.88
39 20 3.58
40 20 3.51
41 20 3.54
42 20 3.48
43 20 3.55
44 20 3.48
45 20 3.48
46 20 3.48
47 20 3.48
48 20 3.48
49 20 3.48
50 20 3.48
51 20 3.48
1 21 -1
2 21 -1
3 21 -1
4 21 -1
5 21 -1
6 21 -1
7 21 -1
8 21 -1
9 21 -1
10 21 -1
11 21 -1
12 21 -1
13 21 -1
14 21 -1
15 21 -1
16 21 -1
17 21 -1
18 21 -1
19 21 -1
20 21 -1
21 21 -1
22 21 11.84
23 21 3.91
24 21 3.61
25 21 3.65
26 21 4.38
27 21 4.42
28 21 4.26
29 21 802.16
30 21 11.18
31 21 3.74
32 21 3.86
33 21 4.38
34 21 29.53
35 21 4.53
36 21 3.7
37 21 3.61
38 21 4.62
39 21 3.68
40 21 3.55
41 21 3.54
42 21 3.48
43 21 3.53
44 21 3.48
45 21 3.48
46 21 3.58
47 21 3.48
48 21 3.54
49 21 3.68
50 21 5.91
51 21 3.48
1 22 -1
2 22 -1
3 22 -1
4 22 -1
5 22 -1
6 22 -1
7 22 -1
8 22 -1
9 22 -1
10 22 -1
11 22 -1
12 22 -1
13 22 -1
14 22 -1
15 22 -1
16 22 -1
17 22 -1
18 22 -1
19 22 -1
20 22 -1
21 22 -1
22 22 -1
23 22 11.85
24 22 4.21
25 22 3.72
26 22 18.99
27 22 18.22
28 22 311.01
29 22 7.71
30 22 4.36
31 22 7.06
32 22 7.12
33 22 4.19
34 22 3.88
35 22 4.37
36 22 3.91
37 22 3.56
38 22 3.48
39 22 3.54
40 22 3.54
41 22 3.48
42 22 3.52
43 22 3.48
44 22 3.52
45 22 3.48
46 22 3.48
47 22 3.48
48 22 4.09
49 22 3.48
50 22 3.48
51 22 3.48
1 23 -1
2 23 -1
3 23 -1
4 23 -1
5 23 -1
6 23 -1
7 23 -1
8 23 -1
9 23 -1
10 23 -1
11 23 -1
12 23 -1
13 23 -1
14 23 -1
15 23 -1
16 23 -1
17 23 -1
18 23 -1
19 23 -1
20 23 -1
21 23 -1
22 23 -1
23 23 -1
24 23 472.79
25 23 4.33
26 23 20.93
27 23 13.78
28 23 4.25
29 23 3.68
30 23 3.86
31 23 3.75
32 23 3.61
33 23 3.82
34 23 3.52
35 23 3.52
36 23 3.54
37 23 3.58
38 23 3.68
39 23 3.48
40 23 3.78
41 23 3.6
42 23 3.48
43 23 4.91
44 23 3.48
45 23 3.48
46 23 3.75
47 23 3.48
48 23 3.48
49 23 3.48
50 23 3.48
51 23 3.48
1 24 -1
2 24 -1
3 24 -1
4 24 -1
5 24 -1
6 24 -1
7 24 -1
8 24 -1
9 24 -1
10 24 -1
11 24 -1
12 24 -1
13 24 -1
14 24 -1
15 24 -1
16 24 -1
17 24 -1
18 24 -1
19 24 -1
20 24 -1
21 24 -1
22 24 -1
23 24 -1
24 24 -1
25 24 111.54
26 24 17.16
27 24 15.95
28 24 5.03
29 24 3.75
30 24 3.92
31 24 3.83
32 24 3.65
33 24 4.05
34 24 3.57
35 24 3.61
36 24 3.6
37 24 3.93
38 24 3.65
39 24 3.52
40 24 3.77
41 24 3.97
42 24 3.53
43 24 70.22
44 24 3.48
45 24 3.48
46 24 3.64
47 24 3.91
48 24 4.12
49 24 3.48
50 24 3.48
51 24 3.61
1 25 -1
2 25 -1
3 25 -1
4 25 -1
5 25 -1
6 25 -1
7 25 -1
8 25 -1
9 25 -1
10 25 -1
11 25 -1
12 25 -1
13 25 -1
14 25 -1
15 25 -1
16 25 -1
17 25 -1
18 25 -1
19 25 -1
20 25 -1
21 25 -1
22 25 -1
23 25 -1
24 25 -1
25 25 -1
26 25 8.41
27 25 38.63
28 25 4.35
29 25 4.07
30 25 4.18
31 25 4.12
32 25 5.2
33 25 4.26
34 25 3.66
35 25 3.75
36 25 3.63
37 25 6.43
38 25 4.21
39 25 3.65
40 25 6.65
41 25 15.4
42 25 5.16
43 25 7.36
44 25 3.65
45 25 3.65
46 25 3.85
47 25 6.77
48 25 5.49
49 25 3.54
50 25 3.48
51 25 3.68
1 26 -1
2 26 -1
3 26 -1
4 26 -1
5 26 -1
6 26 -1
7 26 -1
8 26 -1
9 26 -1
10 26 -1
11 26 -1
12 26 -1
13 26 -1
14 26 -1
15 26 -1
16 26 -1
17 26 -1
18 26 -1
19 26 -1
20 26 -1
21 26 -1
22 26 -1
23 26 -1
24 26 -1
25 26 -1
26 26 -1
27 26 18.89
28 26 29.27
29 26 4.23
30 26 4.59
31 26 196.67
32 26 4.74
33 26 4.27
34 26 3.73
35 26 4.09
36 26 3.69
37 26 3.52
38 26 3.72
39 26 3.48
40 26 3.64
41 26 3.57
42 26 3.52
43 26 5.54
44 26 3.58
45 26 3.48
46 26 3.89
47 26 3.56
48 26 4.5
49 26 3.48
50 26 3.48
51 26 3.48
1 27 -1
2 27 -1
3 27 -1
4 27 -1
5 27 -1
6 27 -1
7 27 -1
8 27 -1
9 27 -1
10 27 -1
11 27 -1
12 27 -1
13 27 -1
14 27 -1
15 27 -1
16 27 -1
17 27 -1
18 27 -1
19 27 -1
20 27 -1
21 27 -1
22 27 -1
23 27 -1
24 27 -1
25 27 -1
26 27 -1
27 27 -1
28 27 16.89
29 27 6.59
30 27 5.27
31 27 7.21
32 27 458.61
33 27 5.64
34 27 4.33
35 27 4.03
36 27 3.64
37 27 4.85
38 27 3.82
39 27 3.54
40 27 3.74
41 27 3.66
42 27 3.79
43 27 4.22
44 27 4.18
45 27 3.48
46 27 3.48
47 27 4.18
48 27 9.08
49 27 3.48
50 27 3.6
51 27 3.48
1 28 -1
2 28 -1
3 28 -1
4 28 -1
5 28 -1
6 28 -1
7 28 -1
8 28 -1
9 28 -1
10 28 -1
11 28 -1
12 28 -1
13 28 -1
14 28 -1
15 28 -1
16 28 -1
17 28 -1
18 28 -1
19 28 -1
20 28 -1
21 28 -1
22 28 -1
23 28 -1
24 28 -1
25 28 -1
26 28 -1
27 28 -1
28 28 -1
29 28 9.85
30 28 4.72
31 28 844.37
32 28 4.73
33 28 4.46
34 28 4.0
35 28 7.58
36 28 7.59
37 28 3.65
38 28 3.88
39 28 3.54
40 28 3.79
41 28 3.6
42 28 3.48
43 28 3.86
44 28 3.62
45 28 3.52
46 28 3.7
47 28 3.48
48 28 3.48
49 28 3.48
50 28 3.48
51 28 3.48
1 29 -1
2 29 -1
3 29 -1
4 29 -1
5 29 -1
6 29 -1
7 29 -1
8 29 -1
9 29 -1
10 29 -1
11 29 -1
12 29 -1
13 29 -1
14 29 -1
15 29 -1
16 29 -1
17 29 -1
18 29 -1
19 29 -1
20 29 -1
21 29 -1
22 29 -1
23 29 -1
24 29 -1
25 29 -1
26 29 -1
27 29 -1
28 29 -1
29 29 -1
30 29 25.37
31 29 5.14
32 29 10.71
33 29 5.22
34 29 68.88
35 29 82.23
36 29 7.23
37 29 3.84
38 29 5.37
39 29 3.91
40 29 3.53
41 29 3.65
42 29 3.69
43 29 3.6
44 29 3.48
45 29 3.85
46 29 3.69
47 29 3.48
48 29 3.58
49 29 3.83
50 29 5.34
51 29 3.59
1 30 -1
2 30 -1
3 30 -1
4 30 -1
5 30 -1
6 30 -1
7 30 -1
8 30 -1
9 30 -1
10 30 -1
11 30 -1
12 30 -1
13 30 -1
14 30 -1
15 30 -1
16 30 -1
17 30 -1
18 30 -1
19 30 -1
20 30 -1
21 30 -1
22 30 -1
23 30 -1
24 30 -1
25 30 -1
26 30 -1
27 30 -1
28 30 -1
29 30 -1
30 30 -1
31 30 3.87
32 30 4.18
33 30 33.3
34 30 627.74
35 30 4.37
36 30 3.68
37 30 4.05
38 30 8.26
39 30 17.27
40 30 3.71
41 30 3.48
42 30 3.76
43 30 3.53
44 30 3.48
45 30 3.48
46 30 3.69
47 30 3.63
48 30 3.52
49 30 3.48
50 30 3.48
51 30 3.48
1 31 -1
2 31 -1
3 31 -1
4 31 -1
5 31 -1
6 31 -1
7 31 -1
8 31 -1
9 31 -1
10 31 -1
11 31 -1
12 31 -1
13 31 -1
14 31 -1
15 31 -1
16 31 -1
17 31 -1
18 31 -1
19 31 -1
20 31 -1
21 31 -1
22 31 -1
23 31 -1
24 31 -1
25 31 -1
26 31 -1
27 31 -1
28 31 -1
29 31 -1
30 31 -1
31 31 -1
32 31 29.15
33 31 4.8
34 31 4.25
35 31 19.35
36 31 10.58
37 31 4.06
38 31 4.89
39 31 3.89
40 31 3.89
41 31 3.89
42 31 3.75
43 31 8.77
44 31 3.52
45 31 3.56
46 31 3.9
47 31 3.61
48 31 8.44
49 31 4.02
50 31 3.57
51 31 3.82
1 32 -1
2 32 -1
3 32 -1
4 32 -1
5 32 -1
6 32 -1
7 32 -1
8 32 -1
9 32 -1
10 32 -1
11 32 -1
12 32 -1
13 32 -1
14 32 -1
15 32 -1
16 32 -1
17 32 -1
18 32 -1
19 32 -1
20 32 -1
21 32 -1
22 32 -1
23 32 -1
24 32 -1
25 32 -1
26 32 -1
27 32 -1
28 32 -1
29 32 -1
30 32 -1
31 32 -1
32 32 -1
33 32 7.14
34 32 8.11
35 32 6.01
36 32 4.13
37 32 9.7
38 32 124.99
39 32 4.17
40 32 4.16
41 32 3.75
42 32 3.83
43 32 4.47
44 32 3.58
45 32 3.55
46 32 188.58
47 32 4.43
48 32 6.62
49 32 3.71
50 32 3.68
51 32 6.46
1 33 -1
2 33 -1
3 33 -1
4 33 -1
5 33 -1
6 33 -1
7 33 -1
8 33 -1
9 33 -1
10 33 -1
11 33 -1
12 33 -1
13 33 -1
14 33 -1
15 33 -1
16 33 -1
17 33 -1
18 33 -1
19 33 -1
20 33 -1
21 33 -1
22 33 -1
23 33 -1
24 33 -1
25 33 -1
26 33 -1
27 33 -1
28 33 -1
29 33 -1
30 33 -1
31 33 -1
32 33 -1
33 33 -1
34 33 5.0
35 33 3.98
36 33 3.87
37 33 27.44
38 33 4.58
39 33 46.67
40 33 6.83
41 33 4.32
42 33 4.5
43 33 3.76
44 33 4.87
45 33 85.08
46 33 3.75
47 33 3.63
48 33 3.48
49 33 3.99
50 33 3.48
51 33 3.48
1 34 -1
2 34 -1
3 34 -1
4 34 -1
5 34 -1
6 34 -1
7 34 -1
8 34 -1
9 34 -1
10 34 -1
11 34 -1
12 34 -1
13 34 -1
14 34 -1
15 34 -1
16 34 -1
17 34 -1
18 34 -1
19 34 -1
20 34 -1
21 34 -1
22 34 -1
23 34 -1
24 34 -1
25 34 -1
26 34 -1
27 34 -1
28 34 -1
29 34 -1
30 34 -1
31 34 -1
32 34 -1
33 34 -1
34 34 -1
35 34 7.65
36 34 4.49
37 34 5.15
38 34 40.31
39 34 58.22
40 34 4.05
41 34 3.68
42 34 3.91
43 34 3.76
44 34 4.03
45 34 3.57
46 34 3.93
47 34 3.48
48 34 3.75
49 34 5.36
50 34 308.8
51 34 3.48
1 35 -1
2 35 -1
3 35 -1
4 35 -1
5 35 -1
6 35 -1
7 35 -1
8 35 -1
9 35 -1
10 35 -1
11 35 -1
12 35 -1
13 35 -1
14 35 -1
15 35 -1
16 35 -1
17 35 -1
18 35 -1
19 35 -1
20 35 -1
21 35 -1
22 35 -1
23 35 -1
24 35 -1
25 35 -1
26 35 -1
27 35 -1
28 35 -1
29 35 -1
30 35 -1
31 35 -1
32 35 -1
33 35 -1
34 35 -1
35 35 -1
36 35 1344.72
37 35 3.91
38 35 4.48
39 35 3.93
40 35 3.86
41 35 3.6
42 35 3.56
43 35 3.65
44 35 3.61
45 35 3.48
46 35 3.79
47 35 3.48
48 35 3.48
49 35 3.48
50 35 3.59
51 35 3.55
1 36 -1
2 36 -1
3 36 -1
4 36 -1
5 36 -1
6 36 -1
7 36 -1
8 36 -1
9 36 -1
10 36 -1
11 36 -1
12 36 -1
13 36 -1
14 36 -1
15 36 -1
16 36 -1
17 36 -1
18 36 -1
19 36 -1
20 36 -1
21 36 -1
22 36 -1
23 36 -1
24 36 -1
25 36 -1
26 36 -1
27 36 -1
28 36 -1
29 36 -1
30 36 -1
31 36 -1
32 36 -1
33 36 -1
34 36 -1
35 36 -1
36 36 -1
37 36 4.87
38 36 10.99
39 36 5.44
40 36 4.05
41 36 4.01
42 36 3.95
43 36 4.95
44 36 3.91
45 36 3.65
46 36 4.74
47 36 4.23
48 36 4.66
49 36 3.75
50 36 5.01
51 36 3.77
1 37 -1
2 37 -1
3 37 -1
4 37 -1
5 37 -1
6 37 -1
7 37 -1
8 37 -1
9 37 -1
10 37 -1
11 37 -1
12 37 -1
13 37 -1
14 37 -1
15 37 -1
16 37 -1
17 37 -1
18 37 -1
19 37 -1
20 37 -1
21 37 -1
22 37 -1
23 37 -1
24 37 -1
25 37 -1
26 37 -1
27 37 -1
28 37 -1
29 37 -1
30 37 -1
31 37 -1
32 37 -1
33 37 -1
34 37 -1
35 37 -1
36 37 -1
37 37 -1
38 37 23.23
39 37 7.4
40 37 11.58
41 37 5.95
42 37 19.37
43 37 4.4
44 37 486.73
45 37 6.08
46 37 8.79
47 37 18.41
48 37 3.76
49 37 4.63
50 37 3.48
51 37 3.48
1 38 -1
2 38 -1
3 38 -1
4 38 -1
5 38 -1
6 38 -1
7 38 -1
8 38 -1
9 38 -1
10 38 -1
11 38 -1
12 38 -1
13 38 -1
14 38 -1
15 38 -1
16 38 -1
17 38 -1
18 38 -1
19 38 -1
20 38 -1
21 38 -1
22 38 -1
23 38 -1
24 38 -1
25 38 -1
26 38 -1
27 38 -1
28 38 -1
29 38 -1
30 38 -1
31 38 -1
32 38 -1
33 38 -1
34 38 -1
35 38 -1
36 38 -1
37 38 -1
38 38 -1
39 38 30.9
40 38 5.21
41 38 5.62
42 38 4.4
43 38 4.02
44 38 4.97
45 38 4.32
46 38 64.51
47 38 5.06
48 38 4.57
49 38 238.54
50 38 4.19
51 38 3.48
1 39 -1
2 39 -1
3 39 -1
4 39 -1
5 39 -1
6 39 -1
7 39 -1
8 39 -1
9 39 -1
10 39 -1
11 39 -1
12 39 -1
13 39 -1
14 39 -1
15 39 -1
16 39 -1
17 39 -1
18 39 -1
19 39 -1
20 39 -1
21 39 -1
22 39 -1
23 39 -1
24 39 -1
25 39 -1
26 39 -1
27 39 -1
28 39 -1
29 39 -1
30 39 -1
31 39 -1
32 39 -1
33 39 -1
34 39 -1
35 39 -1
36 39 -1
37 39 -1
38 39 -1
39 39 -1
40 39 6.5
41 39 5.67
42 39 8.54
43 39 4.84
44 39 4.64
45 39 19.47
46 39 5.92
47 39 5.33
48 39 3.81
49 39 5.17
50 39 4.08
51 39 3.68
1 40 -1
2 40 -1
3 40 -1
4 40 -1
5 40 -1
6 40 -1
7 40 -1
8 40 -1
9 40 -1
10 40 -1
11 40 -1
12 40 -1
13 40 -1
14 40 -1
15 40 -1
16 40 -1
17 40 -1
18 40 -1
19 40 -1
20 40 -1
21 40 -1
22 40 -1
23 40 -1
24 40 -1
25 40 -1
26 40 -1
27 40 -1
28 40 -1
29 40 -1
30 40 -1
31 40 -1
32 40 -1
33 40 -1
34 40 -1
35 40 -1
36 40 -1
37 40 -1
38 40 -1
39 40 -1
40 40 -1
41 40 158.52
42 40 5.74
43 40 5.54
44 40 3.62
45 40 3.48
46 40 3.65
47 40 3.77
48 40 3.61
49 40 3.63
50 40 3.48
51 40 3.48
1 41 -1
2 41 -1
3 41 -1
4 41 -1
5 41 -1
6 41 -1
7 41 -1
8 41 -1
9 41 -1
10 41 -1
11 41 -1
12 41 -1
13 41 -1
14 41 -1
15 41 -1
16 41 -1
17 41 -1
18 41 -1
19 41 -1
20 41 -1
21 41 -1
22 41 -1
23 41 -1
24 41 -1
25 41 -1
26 41 -1
27 41 -1
28 41 -1
29 41 -1
30 41 -1
31 41 -1
32 41 -1
33 41 -1
34 41 -1
35 41 -1
36 41 -1
37 41 -1
38 41 -1
39 41 -1
40 41 -1
41 41 -1
42 41 234.88
43 41 5.15
44 41 4.24
45 41 3.78
46 41 4.58
47 41 4.46
48 41 3.83
49 41 3.59
50 41 3.52
51 41 3.68
1 42 -1
2 42 -1
3 42 -1
4 42 -1
5 42 -1
6 42 -1
7 42 -1
8 42 -1
9 42 -1
10 42 -1
11 42 -1
12 42 -1
13 42 -1
14 42 -1
15 42 -1
16 42 -1
17 42 -1
18 42 -1
19 42 -1
20 42 -1
21 42 -1
22 42 -1
23 42 -1
24 42 -1
25 42 -1
26 42 -1
27 42 -1
28 42 -1
29 42 -1
30 42 -1
31 42 -1
32 42 -1
33 42 -1
34 42 -1
35 42 -1
36 42 -1
37 42 -1
38 42 -1
39 42 -1
40 42 -1
41 42 -1
42 42 -1
43 42 6.36
44 42 276.47
45 42 5.71
46 42 5.65
47 42 12.41
48 42 3.65
49 42 4.05
50 42 3.48
51 42 3.59
1 43 -1
2 43 -1
3 43 -1
4 43 -1
5 43 -1
6 43 -1
7 43 -1
8 43 -1
9 43 -1
10 43 -1
11 43 -1
12 43 -1
13 43 -1
14 43 -1
15 43 -1
16 43 -1
17 43 -1
18 43 -1
19 43 -1
20 43 -1
21 43 -1
22 43 -1
23 43 -1
24 43 -1
25 43 -1
26 43 -1
27 43 -1
28 43 -1
29 43 -1
30 43 -1
31 43 -1
32 43 -1
33 43 -1
34 43 -1
35 43 -1
36 43 -1
37 43 -1
38 43 -1
39 43 -1
40 43 -1
41 43 -1
42 43 -1
43 43 -1
44 43 4.03
45 43 3.69
46 43 5.26
47 43 5.13
48 43 18.51
49 43 3.57
50 43 3.72
51 43 3.72
1 44 -1
2 44 -1
3 44 -1
4 44 -1
5 44 -1
6 44 -1
7 44 -1
8 44 -1
9 44 -1
10 44 -1
11 44 -1
12 44 -1
13 44 -1
14 44 -1
15 44 -1
16 44 -1
17 44 -1
18 44 -1
19 44 -1
20 44 -1
21 44 -1
22 44 -1
23 44 -1
24 44 -1
25 44 -1
26 44 -1
27 44 -1
28 44 -1
29 44 -1
30 44 -1
31 44 -1
32 44 -1
33 44 -1
34 44 -1
35 44 -1
36 44 -1
37 44 -1
38 44 -1
39 44 -1
40 44 -1
41 44 -1
42 44 -1
43 44 -1
44 44 -1
45 44 467.69
46 44 6.53
47 44 10.86
48 44 3.75
49 44 4.63
50 44 3.64
51 44 3.74
1 45 -1
2 45 -1
3 45 -1
4 45 -1
5 45 -1
6 45 -1
7 45 -1
8 45 -1
9 45 -1
10 45 -1
11 45 -1
12 45 -1
13 45 -1
14 45 -1
15 45 -1
16 45 -1
17 45 -1
18 45 -1
19 45 -1
20 45 -1
21 45 -1
22 45 -1
23 45 -1
24 45 -1
25 45 -1
26 45 -1
27 45 -1
28 45 -1
29 45 -1
30 45 -1
31 45 -1
32 45 -1
33 45 -1
34 45 -1
35 45 -1
36 45 -1
37 45 -1
38 45 -1
39 45 -1
40 45 -1
41 45 -1
42 45 -1
43 45 -1
44 45 -1
45 45 -1
46 45 11.48
47 45 15.69
48 45 4.52
49 45 80.41
50 45 4.66
51 45 3.84
1 46 -1
2 46 -1
3 46 -1
4 46 -1
5 46 -1
6 46 -1
7 46 -1
8 46 -1
9 46 -1
10 46 -1
11 46 -1
12 46 -1
13 46 -1
14 46 -1
15 46 -1
16 46 -1
17 46 -1
18 46 -1
19 46 -1
20 46 -1
21 46 -1
22 46 -1
23 46 -1
24 46 -1
25 46 -1
26 46 -1
27 46 -1
28 46 -1
29 46 -1
30 46 -1
31 46 -1
32 46 -1
33 46 -1
34 46 -1
35 46 -1
36 46 -1
37 46 -1
38 46 -1
39 46 -1
40 46 -1
41 46 -1
42 46 -1
43 46 -1
44 46 -1
45 46 -1
46 46 -1
47 46 321.18
48 46 21.62
49 46 6.89
50 46 4.09
51 46 2765.43
1 47 -1
2 47 -1
3 47 -1
4 47 -1
5 47 -1
6 47 -1
7 47 -1
8 47 -1
9 47 -1
10 47 -1
11 47 -1
12 47 -1
13 47 -1
14 47 -1
15 47 -1
16 47 -1
17 47 -1
18 47 -1
19 47 -1
20 47 -1
21 47 -1
22 47 -1
23 47 -1
24 47 -1
25 47 -1
26 47 -1
27 47 -1
28 47 -1
29 47 -1
30 47 -1
31 47 -1
32 47 -1
33 47 -1
34 47 -1
35 47 -1
36 47 -1
37 47 -1
38 47 -1
39 47 -1
40 47 -1
41 47 -1
42 47 -1
43 47 -1
44 47 -1
45 47 -1
46 47 -1
47 47 -1
48 47 75.51
49 47 11.55
50 47 4.5
51 47 80.08
1 48 -1
2 48 -1
3 48 -1
4 48 -1
5 48 -1
6 48 -1
7 48 -1
8 48 -1
9 48 -1
10 48 -1
11 48 -1
12 48 -1
13 48 -1
14 48 -1
15 48 -1
16 48 -1
17 48 -1
18 48 -1
19 48 -1
20 48 -1
21 48 -1
22 48 -1
23 48 -1
24 48 -1
25 48 -1
26 48 -1
27 48 -1
28 48 -1
29 48 -1
30 48 -1
31 48 -1
32 48 -1
33 48 -1
34 48 -1
35 48 -1
36 48 -1
37 48 -1
38 48 -1
39 48 -1
40 48 -1
41 48 -1
42 48 -1
43 48 -1
44 48 -1
45 48 -1
46 48 -1
47 48 -1
48 48 -1
49 48 8.72
50 48 5.73
51 48 31.38
1 49 -1
2 49 -1
3 49 -1
4 49 -1
5 49 -1
6 49 -1
7 49 -1
8 49 -1
9 49 -1
10 49 -1
11 49 -1
12 49 -1
13 49 -1
14 49 -1
15 49 -1
16 49 -1
17 49 -1
18 49 -1
19 49 -1
20 49 -1
21 49 -1
22 49 -1
23 49 -1
24 49 -1
25 49 -1
26 49 -1
27 49 -1
28 49 -1
29 49 -1
30 49 -1
31 49 -1
32 49 -1
33 49 -1
34 49 -1
35 49 -1
36 49 -1
37 49 -1
38 49 -1
39 49 -1
40 49 -1
41 49 -1
42 49 -1
43 49 -1
44 49 -1
45 49 -1
46 49 -1
47 49 -1
48 49 -1
49 49 -1
50 49 310.58
51 49 4.17
1 50 -1
2 50 -1
3 50 -1
4 50 -1
5 50 -1
6 50 -1
7 50 -1
8 50 -1
9 50 -1
10 50 -1
11 50 -1
12 50 -1
13 50 -1
14 50 -1
15 50 -1
16 50 -1
17 50 -1
18 50 -1
19 50 -1
20 50 -1
21 50 -1
22 50 -1
23 50 -1
24 50 -1
25 50 -1
26 50 -1
27 50 -1
28 50 -1
29 50 -1
30 50 -1
31 50 -1
32 50 -1
33 50 -1
34 50 -1
35 50 -1
36 50 -1
37 50 -1
38 50 -1
39 50 -1
40 50 -1
41 50 -1
42 50 -1
43 50 -1
44 50 -1
45 50 -1
46 50 -1
47 50 -1
48 50 -1
49 50 -1
50 50 -1
51 50 59.21
1 51 -1
2 51 -1
3 51 -1
4 51 -1
5 51 -1
6 51 -1
7 51 -1
8 51 -1
9 51 -1
10 51 -1
11 51 -1
12 51 -1
13 51 -1
14 51 -1
15 51 -1
16 51 -1
17 51 -1
18 51 -1
19 51 -1
20 51 -1
21 51 -1
22 51 -1
23 51 -1
24 51 -1
25 51 -1
26 51 -1
27 51 -1
28 51 -1
29 51 -1
30 51 -1
31 51 -1
32 51 -1
33 51 -1
34 51 -1
35 51 -1
36 51 -1
37 51 -1
38 51 -1
39 51 -1
40 51 -1
41 51 -1
42 51 -1
43 51 -1
44 51 -1
45 51 -1
46 51 -1
47 51 -1
48 51 -1
49 51 -1
50 51 -1
51 51 -1
